#######################
Slurm job id: 17497813_252
Running on machine: p29
Running cmd: /nfs/shared/static-builds/gurobi1202 SOFTMEMLIMIT=125 MIPFocus=3 Presolve=2 TimeLimit=500 seed=11 /nfs/models/miplib2010/k16x240.mps.bz2
#######################
Set parameter TimeLimit to value 500
Set parameter SoftMemLimit to value 125
Set parameter MIPFocus to value 3
Set parameter LogFile to value 1202-MIPFocus3-Presolve2-TimeLimit500-k16x240-1.log
Set parameter Presolve to value 2
Set parameter Seed to value 11
Using license file /opt/gurobi/gurobi.lic

Gurobi Optimizer version 12.0.2 build v12.0.2rc0 (linux64 - "Ubuntu 22.04.4 LTS")
Copyright (c) 2025, Gurobi Optimization, LLC

Read MPS format model from file /nfs/models/miplib2010/k16x240.mps.bz2
Reading time = 0.00 seconds
k16x240: 256 rows, 480 columns, 960 nonzeros

Using Gurobi shared library /nfs/shared/static-builds/gurobi1202

CPU model: Intel(R) Xeon(R) E-2388G CPU @ 3.20GHz, instruction set [SSE2|AVX|AVX2|AVX512]
Thread count: 8 physical cores, 16 logical processors, using up to 16 threads

Non-default parameters:
TimeLimit  500
SoftMemLimit  125
MIPFocus  3
Presolve  2
Seed  11

Optimize a model with 256 rows, 480 columns and 960 nonzeros
Model fingerprint: 0x4e80885f
Variable types: 240 continuous, 240 integer (240 binary)
Coefficient statistics:
  Matrix range     [1e+00, 1e+03]
  Objective range  [1e+00, 1e+03]
  Bounds range     [1e+00, 1e+03]
  RHS range        [4e+00, 4e+02]
Found heuristic solution: objective 24175.000000
Presolve time: 0.00s
Presolved: 256 rows, 480 columns, 960 nonzeros
Variable types: 240 continuous, 240 integer (240 binary)
Root relaxation presolve removed 241 rows and 240 columns
Root relaxation presolved: 15 rows, 240 columns, 450 nonzeros


Root relaxation: objective 2.769838e+03, 16 iterations, 0.00 seconds (0.00 work units)

    Nodes    |    Current Node    |     Objective Bounds      |     Work
 Expl Unexpl |  Obj  Depth IntInf | Incumbent    BestBd   Gap | It/Node Time

     0     0 2769.83800    0   14 24175.0000 2769.83800  88.5%     -    0s
H    0     0                    11359.000000 2769.83800  75.6%     -    0s
H    0     0                    11248.000000 2769.83800  75.4%     -    0s
H    0     0                    11240.000000 8116.87580  27.8%     -    0s
H    0     0                    11164.000000 8116.87580  27.3%     -    0s
H    0     0                    11110.000000 8116.87580  26.9%     -    0s
H    0     0                    11079.000000 8116.87580  26.7%     -    0s
H    0     0                    11077.000000 8116.87580  26.7%     -    0s
     0     0 8116.87580    0   26 11077.0000 8116.87580  26.7%     -    0s
H    0     0                    11036.000000 8182.85928  25.9%     -    0s
     0     0 8748.17806    0   23 11036.0000 8748.17806  20.7%     -    0s
     0     0 8751.29955    0   20 11036.0000 8751.29955  20.7%     -    0s
     0     0 8810.95744    0   21 11036.0000 8810.95744  20.2%     -    0s
     0     0 8810.95744    0   18 11036.0000 8810.95744  20.2%     -    0s
H    0     0                    10985.000000 8810.95744  19.8%     -    0s
H    0     0                    10910.000000 8810.95744  19.2%     -    0s
     0     0 9046.36529    0   28 10910.0000 9046.36529  17.1%     -    0s
H    0     0                    10853.000000 9046.36529  16.6%     -    0s
H    0     0                    10787.000000 9046.36529  16.1%     -    0s
     0     0 9053.09346    0   36 10787.0000 9053.09346  16.1%     -    0s
     0     0 9126.53670    0   30 10787.0000 9126.53670  15.4%     -    0s
     0     0 9190.87551    0   31 10787.0000 9190.87551  14.8%     -    0s
     0     0 9195.36625    0   31 10787.0000 9195.36625  14.8%     -    0s
     0     2 9195.36625    0   31 10787.0000 9195.36625  14.8%     -    0s
H   27    58                    10765.000000 9230.49935  14.3%  75.4    0s
H   48    58                    10681.000000 9230.49935  13.6%  60.8    0s
H 1504  1418                    10678.000000 9570.98695  10.4%  33.5    1s
H 1508  1348                    10674.000000 9570.98695  10.3%  33.7    1s
  4658  3049 10549.2035   27   28 10674.0000 10291.6711  3.58%  80.6    5s
 15555  7094 10640.1063   26   17 10674.0000 10507.8386  1.56%  60.9   10s

Cutting planes:
  Lift-and-project: 8
  Cover: 3
  Implied bound: 12
  Dual implied bound: 8
  MIR: 166
  Mixing: 1
  Flow cover: 501
  Flow path: 36
  Zero half: 31
  Network: 23
  Relax-and-lift: 2

Explored 34386 nodes (1361685 simplex iterations) in 13.10 seconds (18.70 work units)
Thread count was 16 (of 16 available processors)

Solution count 10: 10674 10678 10681 ... 11077

Optimal solution found (tolerance 1.00e-04)
Best objective 1.067400000000e+04, best bound 1.067300000000e+04, gap 0.0094%
